data;

param num_top:=4;

#nodes and edges of the physical network
param n := 10;

set E := (1,2) (1,3) (1,7) (2,4) (2,7) (3,5) (4,8) (5,6) (5,7) (6,7) (6,9) (7,8) (7,9) (8,10) (9,10) ;

#nodes and edges of the virtual networks
set Nl[1] := 8 7 6 4 ;
set Nl[2] := 1 7 6 8 ;
set Nl[3] := 7 9 4 6 ;
set Nl[4] := 7 8 1 2 ;

set El[1] := (7,8) (6,7) (4,6) (4,8) ;
set El[2] := (1,7) (6,7) (6,8) (1,8) ;
set El[3] := (7,9) (4,9) (4,6) (6,7) ;
set El[4] := (7,8) (1,8) (1,2) (2,7) ;
